p cnf 455 1545
c p weight 182 -1 0
c p weight -182 1 0
c p weight 184 6.12323399573676603586882014729198302312846062338790031898128063403419218957424163818359375E-17 0
c p weight -184 1 0
c p weight 185 1 0
c p weight -185 1 0
c p weight 186 -1 0
c p weight -186 1 0
c p weight 188 -1 0
c p weight -188 1 0
c p weight 191 -1 0
c p weight -191 1 0
c p weight 194 -1 0
c p weight -194 1 0
c p weight 197 -1 0
c p weight -197 1 0
c p weight 200 -1 0
c p weight -200 1 0
c p weight 203 -1 0
c p weight -203 1 0
c p weight 206 -1 0
c p weight -206 1 0
c p weight 209 -1 0
c p weight -209 1 0
c p weight 212 -1 0
c p weight -212 1 0
c p weight 215 -1 0
c p weight -215 1 0
c p weight 218 -1 0
c p weight -218 1 0
c p weight 221 -1 0
c p weight -221 1 0
c p weight 224 -1 0
c p weight -224 1 0
c p weight 227 -1 0
c p weight -227 1 0
c p weight 230 -1 0
c p weight -230 1 0
c p weight 233 -1 0
c p weight -233 1 0
c p weight 236 -1 0
c p weight -236 1 0
c p weight 239 -1 0
c p weight -239 1 0
c p weight 242 -1 0
c p weight -242 1 0
c p weight 245 -1 0
c p weight -245 1 0
c p weight 248 -1 0
c p weight -248 1 0
c p weight 251 -1 0
c p weight -251 1 0
c p weight 254 -1 0
c p weight -254 1 0
c p weight 257 -1 0
c p weight -257 1 0
c p weight 260 -1 0
c p weight -260 1 0
c p weight 263 -1 0
c p weight -263 1 0
c p weight 266 -1 0
c p weight -266 1 0
c p weight 269 -1 0
c p weight -269 1 0
c p weight 272 -1 0
c p weight -272 1 0
c p weight 275 -1 0
c p weight -275 1 0
c p weight 278 -1 0
c p weight -278 1 0
c p weight 281 -1 0
c p weight -281 1 0
c p weight 284 -1 0
c p weight -284 1 0
c p weight 287 -1 0
c p weight -287 1 0
c p weight 290 -1 0
c p weight -290 1 0
c p weight 293 -1 0
c p weight -293 1 0
c p weight 296 -1 0
c p weight -296 1 0
c p weight 299 -1 0
c p weight -299 1 0
c p weight 302 -1 0
c p weight -302 1 0
c p weight 305 -1 0
c p weight -305 1 0
c p weight 308 -1 0
c p weight -308 1 0
c p weight 311 -1 0
c p weight -311 1 0
c p weight 314 -1 0
c p weight -314 1 0
c p weight 317 -1 0
c p weight -317 1 0
c p weight 320 -1 0
c p weight -320 1 0
c p weight 323 -1 0
c p weight -323 1 0
c p weight 326 -1 0
c p weight -326 1 0
c p weight 329 -1 0
c p weight -329 1 0
c p weight 332 -1 0
c p weight -332 1 0
c p weight 335 -1 0
c p weight -335 1 0
c p weight 338 -1 0
c p weight -338 1 0
c p weight 341 -1 0
c p weight -341 1 0
c p weight 344 -1 0
c p weight -344 1 0
c p weight 347 -1 0
c p weight -347 1 0
c p weight 350 -1 0
c p weight -350 1 0
c p weight 353 -1 0
c p weight -353 1 0
c p weight 356 -1 0
c p weight -356 1 0
c p weight 359 -1 0
c p weight -359 1 0
c p weight 362 -1 0
c p weight -362 1 0
c p weight 365 -1 0
c p weight -365 1 0
c p weight 368 -1 0
c p weight -368 1 0
c p weight 371 -1 0
c p weight -371 1 0
c p weight 374 -1 0
c p weight -374 1 0
c p weight 377 -1 0
c p weight -377 1 0
c p weight 380 -1 0
c p weight -380 1 0
c p weight 383 -1 0
c p weight -383 1 0
c p weight 386 -1 0
c p weight -386 1 0
c p weight 389 -1 0
c p weight -389 1 0
c p weight 392 -1 0
c p weight -392 1 0
c p weight 395 -1 0
c p weight -395 1 0
c p weight 398 -1 0
c p weight -398 1 0
c p weight 401 -1 0
c p weight -401 1 0
c p weight 404 -1 0
c p weight -404 1 0
c p weight 407 -1 0
c p weight -407 1 0
c p weight 410 -1 0
c p weight -410 1 0
c p weight 413 -1 0
c p weight -413 1 0
c p weight 416 -1 0
c p weight -416 1 0
c p weight 419 -1 0
c p weight -419 1 0
c p weight 422 -1 0
c p weight -422 1 0
c p weight 425 -1 0
c p weight -425 1 0
c p weight 428 -1 0
c p weight -428 1 0
c p weight 431 -1 0
c p weight -431 1 0
c p weight 434 -1 0
c p weight -434 1 0
c p weight 437 -1 0
c p weight -437 1 0
c p weight 440 -1 0
c p weight -440 1 0
c p weight 443 -1 0
c p weight -443 1 0
c p weight 446 -1 0
c p weight -446 1 0
c p weight 449 -1 0
c p weight -449 1 0
c p weight 452 -1 0
c p weight -452 1 0
c p weight 455 -1 0
c p weight -455 1 0
-179 0
-177 0
-175 0
-173 0
-171 0
-169 0
-167 0
-165 0
-163 0
-161 0
-159 0
-157 0
-155 0
-153 0
-151 0
-149 0
-147 0
-145 0
-143 0
-141 0
-139 0
-137 0
-135 0
-133 0
-131 0
-129 0
-127 0
-125 0
-123 0
-121 0
-119 0
-117 0
-115 0
-113 0
-111 0
-109 0
-107 0
-105 0
-103 0
-101 0
-99 0
-97 0
-95 0
-93 0
-91 0
-89 0
-87 0
-85 0
-83 0
-81 0
-79 0
-77 0
-75 0
-73 0
-71 0
-69 0
-67 0
-65 0
-63 0
-61 0
-59 0
-57 0
-55 0
-53 0
-51 0
-49 0
-47 0
-45 0
-43 0
-41 0
-39 0
-37 0
-35 0
-33 0
-31 0
-29 0
-27 0
-25 0
-23 0
-21 0
-19 0
-17 0
-15 0
-13 0
-11 0
-9 0
-7 0
-5 0
-3 0
-1 0
181 179 -180 0
181 -179 180 0
-181 179 180 0
-181 -179 -180 0
-182 179 0
-182 180 0
182 -179 -180 0
183 -179 181 0
-183 179 181 0
-184 181 0
183 -184 -179 0
-183 -184 179 0
183 184 179 -181 0
-183 184 -179 -181 0
-185 181 0
183 -185 179 0
-183 -185 -179 0
183 185 -179 -181 0
-183 185 179 -181 0
-186 183 0
-186 181 0
-186 -179 0
186 -183 179 -181 0
187 183 -181 0
187 -183 181 0
-187 183 181 0
-187 -183 -181 0
-188 183 0
-188 181 0
188 -183 -181 0
189 183 -177 0
189 -183 177 0
-189 183 177 0
-189 -183 -177 0
190 187 -178 0
190 -187 178 0
-190 187 178 0
-190 -187 -178 0
-191 183 0
-191 178 0
-191 177 -187 0
-191 -177 187 0
191 -183 177 187 -178 0
191 -183 -177 -187 -178 0
192 189 -175 0
192 -189 175 0
-192 189 175 0
-192 -189 -175 0
193 178 -176 0
193 -178 176 0
-193 178 176 0
-193 -178 -176 0
-194 189 0
-194 176 0
-194 175 -178 0
-194 -175 178 0
194 -189 175 178 -176 0
194 -189 -175 -178 -176 0
195 192 -173 0
195 -192 173 0
-195 192 173 0
-195 -192 -173 0
196 176 -174 0
196 -176 174 0
-196 176 174 0
-196 -176 -174 0
-197 192 0
-197 174 0
-197 173 -176 0
-197 -173 176 0
197 -192 173 176 -174 0
197 -192 -173 -176 -174 0
198 195 -171 0
198 -195 171 0
-198 195 171 0
-198 -195 -171 0
199 174 -172 0
199 -174 172 0
-199 174 172 0
-199 -174 -172 0
-200 195 0
-200 172 0
-200 171 -174 0
-200 -171 174 0
200 -195 171 174 -172 0
200 -195 -171 -174 -172 0
201 198 -169 0
201 -198 169 0
-201 198 169 0
-201 -198 -169 0
202 172 -170 0
202 -172 170 0
-202 172 170 0
-202 -172 -170 0
-203 198 0
-203 170 0
-203 169 -172 0
-203 -169 172 0
203 -198 169 172 -170 0
203 -198 -169 -172 -170 0
204 201 -167 0
204 -201 167 0
-204 201 167 0
-204 -201 -167 0
205 170 -168 0
205 -170 168 0
-205 170 168 0
-205 -170 -168 0
-206 201 0
-206 168 0
-206 167 -170 0
-206 -167 170 0
206 -201 167 170 -168 0
206 -201 -167 -170 -168 0
207 204 -165 0
207 -204 165 0
-207 204 165 0
-207 -204 -165 0
208 168 -166 0
208 -168 166 0
-208 168 166 0
-208 -168 -166 0
-209 204 0
-209 166 0
-209 165 -168 0
-209 -165 168 0
209 -204 165 168 -166 0
209 -204 -165 -168 -166 0
210 207 -163 0
210 -207 163 0
-210 207 163 0
-210 -207 -163 0
211 166 -164 0
211 -166 164 0
-211 166 164 0
-211 -166 -164 0
-212 207 0
-212 164 0
-212 163 -166 0
-212 -163 166 0
212 -207 163 166 -164 0
212 -207 -163 -166 -164 0
213 210 -161 0
213 -210 161 0
-213 210 161 0
-213 -210 -161 0
214 164 -162 0
214 -164 162 0
-214 164 162 0
-214 -164 -162 0
-215 210 0
-215 162 0
-215 161 -164 0
-215 -161 164 0
215 -210 161 164 -162 0
215 -210 -161 -164 -162 0
216 213 -159 0
216 -213 159 0
-216 213 159 0
-216 -213 -159 0
217 162 -160 0
217 -162 160 0
-217 162 160 0
-217 -162 -160 0
-218 213 0
-218 160 0
-218 159 -162 0
-218 -159 162 0
218 -213 159 162 -160 0
218 -213 -159 -162 -160 0
219 216 -157 0
219 -216 157 0
-219 216 157 0
-219 -216 -157 0
220 160 -158 0
220 -160 158 0
-220 160 158 0
-220 -160 -158 0
-221 216 0
-221 158 0
-221 157 -160 0
-221 -157 160 0
221 -216 157 160 -158 0
221 -216 -157 -160 -158 0
222 219 -155 0
222 -219 155 0
-222 219 155 0
-222 -219 -155 0
223 158 -156 0
223 -158 156 0
-223 158 156 0
-223 -158 -156 0
-224 219 0
-224 156 0
-224 155 -158 0
-224 -155 158 0
224 -219 155 158 -156 0
224 -219 -155 -158 -156 0
225 222 -153 0
225 -222 153 0
-225 222 153 0
-225 -222 -153 0
226 156 -154 0
226 -156 154 0
-226 156 154 0
-226 -156 -154 0
-227 222 0
-227 154 0
-227 153 -156 0
-227 -153 156 0
227 -222 153 156 -154 0
227 -222 -153 -156 -154 0
228 225 -151 0
228 -225 151 0
-228 225 151 0
-228 -225 -151 0
229 154 -152 0
229 -154 152 0
-229 154 152 0
-229 -154 -152 0
-230 225 0
-230 152 0
-230 151 -154 0
-230 -151 154 0
230 -225 151 154 -152 0
230 -225 -151 -154 -152 0
231 228 -149 0
231 -228 149 0
-231 228 149 0
-231 -228 -149 0
232 152 -150 0
232 -152 150 0
-232 152 150 0
-232 -152 -150 0
-233 228 0
-233 150 0
-233 149 -152 0
-233 -149 152 0
233 -228 149 152 -150 0
233 -228 -149 -152 -150 0
234 231 -147 0
234 -231 147 0
-234 231 147 0
-234 -231 -147 0
235 150 -148 0
235 -150 148 0
-235 150 148 0
-235 -150 -148 0
-236 231 0
-236 148 0
-236 147 -150 0
-236 -147 150 0
236 -231 147 150 -148 0
236 -231 -147 -150 -148 0
237 234 -145 0
237 -234 145 0
-237 234 145 0
-237 -234 -145 0
238 148 -146 0
238 -148 146 0
-238 148 146 0
-238 -148 -146 0
-239 234 0
-239 146 0
-239 145 -148 0
-239 -145 148 0
239 -234 145 148 -146 0
239 -234 -145 -148 -146 0
240 237 -143 0
240 -237 143 0
-240 237 143 0
-240 -237 -143 0
241 146 -144 0
241 -146 144 0
-241 146 144 0
-241 -146 -144 0
-242 237 0
-242 144 0
-242 143 -146 0
-242 -143 146 0
242 -237 143 146 -144 0
242 -237 -143 -146 -144 0
243 240 -141 0
243 -240 141 0
-243 240 141 0
-243 -240 -141 0
244 144 -142 0
244 -144 142 0
-244 144 142 0
-244 -144 -142 0
-245 240 0
-245 142 0
-245 141 -144 0
-245 -141 144 0
245 -240 141 144 -142 0
245 -240 -141 -144 -142 0
246 243 -139 0
246 -243 139 0
-246 243 139 0
-246 -243 -139 0
247 142 -140 0
247 -142 140 0
-247 142 140 0
-247 -142 -140 0
-248 243 0
-248 140 0
-248 139 -142 0
-248 -139 142 0
248 -243 139 142 -140 0
248 -243 -139 -142 -140 0
249 246 -137 0
249 -246 137 0
-249 246 137 0
-249 -246 -137 0
250 140 -138 0
250 -140 138 0
-250 140 138 0
-250 -140 -138 0
-251 246 0
-251 138 0
-251 137 -140 0
-251 -137 140 0
251 -246 137 140 -138 0
251 -246 -137 -140 -138 0
252 249 -135 0
252 -249 135 0
-252 249 135 0
-252 -249 -135 0
253 138 -136 0
253 -138 136 0
-253 138 136 0
-253 -138 -136 0
-254 249 0
-254 136 0
-254 135 -138 0
-254 -135 138 0
254 -249 135 138 -136 0
254 -249 -135 -138 -136 0
255 252 -133 0
255 -252 133 0
-255 252 133 0
-255 -252 -133 0
256 136 -134 0
256 -136 134 0
-256 136 134 0
-256 -136 -134 0
-257 252 0
-257 134 0
-257 133 -136 0
-257 -133 136 0
257 -252 133 136 -134 0
257 -252 -133 -136 -134 0
258 255 -131 0
258 -255 131 0
-258 255 131 0
-258 -255 -131 0
259 134 -132 0
259 -134 132 0
-259 134 132 0
-259 -134 -132 0
-260 255 0
-260 132 0
-260 131 -134 0
-260 -131 134 0
260 -255 131 134 -132 0
260 -255 -131 -134 -132 0
261 258 -129 0
261 -258 129 0
-261 258 129 0
-261 -258 -129 0
262 132 -130 0
262 -132 130 0
-262 132 130 0
-262 -132 -130 0
-263 258 0
-263 130 0
-263 129 -132 0
-263 -129 132 0
263 -258 129 132 -130 0
263 -258 -129 -132 -130 0
264 261 -127 0
264 -261 127 0
-264 261 127 0
-264 -261 -127 0
265 130 -128 0
265 -130 128 0
-265 130 128 0
-265 -130 -128 0
-266 261 0
-266 128 0
-266 127 -130 0
-266 -127 130 0
266 -261 127 130 -128 0
266 -261 -127 -130 -128 0
267 264 -125 0
267 -264 125 0
-267 264 125 0
-267 -264 -125 0
268 128 -126 0
268 -128 126 0
-268 128 126 0
-268 -128 -126 0
-269 264 0
-269 126 0
-269 125 -128 0
-269 -125 128 0
269 -264 125 128 -126 0
269 -264 -125 -128 -126 0
270 267 -123 0
270 -267 123 0
-270 267 123 0
-270 -267 -123 0
271 126 -124 0
271 -126 124 0
-271 126 124 0
-271 -126 -124 0
-272 267 0
-272 124 0
-272 123 -126 0
-272 -123 126 0
272 -267 123 126 -124 0
272 -267 -123 -126 -124 0
273 270 -121 0
273 -270 121 0
-273 270 121 0
-273 -270 -121 0
274 124 -122 0
274 -124 122 0
-274 124 122 0
-274 -124 -122 0
-275 270 0
-275 122 0
-275 121 -124 0
-275 -121 124 0
275 -270 121 124 -122 0
275 -270 -121 -124 -122 0
276 273 -119 0
276 -273 119 0
-276 273 119 0
-276 -273 -119 0
277 122 -120 0
277 -122 120 0
-277 122 120 0
-277 -122 -120 0
-278 273 0
-278 120 0
-278 119 -122 0
-278 -119 122 0
278 -273 119 122 -120 0
278 -273 -119 -122 -120 0
279 276 -117 0
279 -276 117 0
-279 276 117 0
-279 -276 -117 0
280 120 -118 0
280 -120 118 0
-280 120 118 0
-280 -120 -118 0
-281 276 0
-281 118 0
-281 117 -120 0
-281 -117 120 0
281 -276 117 120 -118 0
281 -276 -117 -120 -118 0
282 279 -115 0
282 -279 115 0
-282 279 115 0
-282 -279 -115 0
283 118 -116 0
283 -118 116 0
-283 118 116 0
-283 -118 -116 0
-284 279 0
-284 116 0
-284 115 -118 0
-284 -115 118 0
284 -279 115 118 -116 0
284 -279 -115 -118 -116 0
285 282 -113 0
285 -282 113 0
-285 282 113 0
-285 -282 -113 0
286 116 -114 0
286 -116 114 0
-286 116 114 0
-286 -116 -114 0
-287 282 0
-287 114 0
-287 113 -116 0
-287 -113 116 0
287 -282 113 116 -114 0
287 -282 -113 -116 -114 0
288 285 -111 0
288 -285 111 0
-288 285 111 0
-288 -285 -111 0
289 114 -112 0
289 -114 112 0
-289 114 112 0
-289 -114 -112 0
-290 285 0
-290 112 0
-290 111 -114 0
-290 -111 114 0
290 -285 111 114 -112 0
290 -285 -111 -114 -112 0
291 288 -109 0
291 -288 109 0
-291 288 109 0
-291 -288 -109 0
292 112 -110 0
292 -112 110 0
-292 112 110 0
-292 -112 -110 0
-293 288 0
-293 110 0
-293 109 -112 0
-293 -109 112 0
293 -288 109 112 -110 0
293 -288 -109 -112 -110 0
294 291 -107 0
294 -291 107 0
-294 291 107 0
-294 -291 -107 0
295 110 -108 0
295 -110 108 0
-295 110 108 0
-295 -110 -108 0
-296 291 0
-296 108 0
-296 107 -110 0
-296 -107 110 0
296 -291 107 110 -108 0
296 -291 -107 -110 -108 0
297 294 -105 0
297 -294 105 0
-297 294 105 0
-297 -294 -105 0
298 108 -106 0
298 -108 106 0
-298 108 106 0
-298 -108 -106 0
-299 294 0
-299 106 0
-299 105 -108 0
-299 -105 108 0
299 -294 105 108 -106 0
299 -294 -105 -108 -106 0
300 297 -103 0
300 -297 103 0
-300 297 103 0
-300 -297 -103 0
301 106 -104 0
301 -106 104 0
-301 106 104 0
-301 -106 -104 0
-302 297 0
-302 104 0
-302 103 -106 0
-302 -103 106 0
302 -297 103 106 -104 0
302 -297 -103 -106 -104 0
303 300 -101 0
303 -300 101 0
-303 300 101 0
-303 -300 -101 0
304 104 -102 0
304 -104 102 0
-304 104 102 0
-304 -104 -102 0
-305 300 0
-305 102 0
-305 101 -104 0
-305 -101 104 0
305 -300 101 104 -102 0
305 -300 -101 -104 -102 0
306 303 -99 0
306 -303 99 0
-306 303 99 0
-306 -303 -99 0
307 102 -100 0
307 -102 100 0
-307 102 100 0
-307 -102 -100 0
-308 303 0
-308 100 0
-308 99 -102 0
-308 -99 102 0
308 -303 99 102 -100 0
308 -303 -99 -102 -100 0
309 306 -97 0
309 -306 97 0
-309 306 97 0
-309 -306 -97 0
310 100 -98 0
310 -100 98 0
-310 100 98 0
-310 -100 -98 0
-311 306 0
-311 98 0
-311 97 -100 0
-311 -97 100 0
311 -306 97 100 -98 0
311 -306 -97 -100 -98 0
312 309 -95 0
312 -309 95 0
-312 309 95 0
-312 -309 -95 0
313 98 -96 0
313 -98 96 0
-313 98 96 0
-313 -98 -96 0
-314 309 0
-314 96 0
-314 95 -98 0
-314 -95 98 0
314 -309 95 98 -96 0
314 -309 -95 -98 -96 0
315 312 -93 0
315 -312 93 0
-315 312 93 0
-315 -312 -93 0
316 96 -94 0
316 -96 94 0
-316 96 94 0
-316 -96 -94 0
-317 312 0
-317 94 0
-317 93 -96 0
-317 -93 96 0
317 -312 93 96 -94 0
317 -312 -93 -96 -94 0
318 315 -91 0
318 -315 91 0
-318 315 91 0
-318 -315 -91 0
319 94 -92 0
319 -94 92 0
-319 94 92 0
-319 -94 -92 0
-320 315 0
-320 92 0
-320 91 -94 0
-320 -91 94 0
320 -315 91 94 -92 0
320 -315 -91 -94 -92 0
321 318 -89 0
321 -318 89 0
-321 318 89 0
-321 -318 -89 0
322 92 -90 0
322 -92 90 0
-322 92 90 0
-322 -92 -90 0
-323 318 0
-323 90 0
-323 89 -92 0
-323 -89 92 0
323 -318 89 92 -90 0
323 -318 -89 -92 -90 0
324 321 -87 0
324 -321 87 0
-324 321 87 0
-324 -321 -87 0
325 90 -88 0
325 -90 88 0
-325 90 88 0
-325 -90 -88 0
-326 321 0
-326 88 0
-326 87 -90 0
-326 -87 90 0
326 -321 87 90 -88 0
326 -321 -87 -90 -88 0
327 324 -85 0
327 -324 85 0
-327 324 85 0
-327 -324 -85 0
328 88 -86 0
328 -88 86 0
-328 88 86 0
-328 -88 -86 0
-329 324 0
-329 86 0
-329 85 -88 0
-329 -85 88 0
329 -324 85 88 -86 0
329 -324 -85 -88 -86 0
330 327 -83 0
330 -327 83 0
-330 327 83 0
-330 -327 -83 0
331 86 -84 0
331 -86 84 0
-331 86 84 0
-331 -86 -84 0
-332 327 0
-332 84 0
-332 83 -86 0
-332 -83 86 0
332 -327 83 86 -84 0
332 -327 -83 -86 -84 0
333 330 -81 0
333 -330 81 0
-333 330 81 0
-333 -330 -81 0
334 84 -82 0
334 -84 82 0
-334 84 82 0
-334 -84 -82 0
-335 330 0
-335 82 0
-335 81 -84 0
-335 -81 84 0
335 -330 81 84 -82 0
335 -330 -81 -84 -82 0
336 333 -79 0
336 -333 79 0
-336 333 79 0
-336 -333 -79 0
337 82 -80 0
337 -82 80 0
-337 82 80 0
-337 -82 -80 0
-338 333 0
-338 80 0
-338 79 -82 0
-338 -79 82 0
338 -333 79 82 -80 0
338 -333 -79 -82 -80 0
339 336 -77 0
339 -336 77 0
-339 336 77 0
-339 -336 -77 0
340 80 -78 0
340 -80 78 0
-340 80 78 0
-340 -80 -78 0
-341 336 0
-341 78 0
-341 77 -80 0
-341 -77 80 0
341 -336 77 80 -78 0
341 -336 -77 -80 -78 0
342 339 -75 0
342 -339 75 0
-342 339 75 0
-342 -339 -75 0
343 78 -76 0
343 -78 76 0
-343 78 76 0
-343 -78 -76 0
-344 339 0
-344 76 0
-344 75 -78 0
-344 -75 78 0
344 -339 75 78 -76 0
344 -339 -75 -78 -76 0
345 342 -73 0
345 -342 73 0
-345 342 73 0
-345 -342 -73 0
346 76 -74 0
346 -76 74 0
-346 76 74 0
-346 -76 -74 0
-347 342 0
-347 74 0
-347 73 -76 0
-347 -73 76 0
347 -342 73 76 -74 0
347 -342 -73 -76 -74 0
348 345 -71 0
348 -345 71 0
-348 345 71 0
-348 -345 -71 0
349 74 -72 0
349 -74 72 0
-349 74 72 0
-349 -74 -72 0
-350 345 0
-350 72 0
-350 71 -74 0
-350 -71 74 0
350 -345 71 74 -72 0
350 -345 -71 -74 -72 0
351 348 -69 0
351 -348 69 0
-351 348 69 0
-351 -348 -69 0
352 72 -70 0
352 -72 70 0
-352 72 70 0
-352 -72 -70 0
-353 348 0
-353 70 0
-353 69 -72 0
-353 -69 72 0
353 -348 69 72 -70 0
353 -348 -69 -72 -70 0
354 351 -67 0
354 -351 67 0
-354 351 67 0
-354 -351 -67 0
355 70 -68 0
355 -70 68 0
-355 70 68 0
-355 -70 -68 0
-356 351 0
-356 68 0
-356 67 -70 0
-356 -67 70 0
356 -351 67 70 -68 0
356 -351 -67 -70 -68 0
357 354 -65 0
357 -354 65 0
-357 354 65 0
-357 -354 -65 0
358 68 -66 0
358 -68 66 0
-358 68 66 0
-358 -68 -66 0
-359 354 0
-359 66 0
-359 65 -68 0
-359 -65 68 0
359 -354 65 68 -66 0
359 -354 -65 -68 -66 0
360 357 -63 0
360 -357 63 0
-360 357 63 0
-360 -357 -63 0
361 66 -64 0
361 -66 64 0
-361 66 64 0
-361 -66 -64 0
-362 357 0
-362 64 0
-362 63 -66 0
-362 -63 66 0
362 -357 63 66 -64 0
362 -357 -63 -66 -64 0
363 360 -61 0
363 -360 61 0
-363 360 61 0
-363 -360 -61 0
364 64 -62 0
364 -64 62 0
-364 64 62 0
-364 -64 -62 0
-365 360 0
-365 62 0
-365 61 -64 0
-365 -61 64 0
365 -360 61 64 -62 0
365 -360 -61 -64 -62 0
366 363 -59 0
366 -363 59 0
-366 363 59 0
-366 -363 -59 0
367 62 -60 0
367 -62 60 0
-367 62 60 0
-367 -62 -60 0
-368 363 0
-368 60 0
-368 59 -62 0
-368 -59 62 0
368 -363 59 62 -60 0
368 -363 -59 -62 -60 0
369 366 -57 0
369 -366 57 0
-369 366 57 0
-369 -366 -57 0
370 60 -58 0
370 -60 58 0
-370 60 58 0
-370 -60 -58 0
-371 366 0
-371 58 0
-371 57 -60 0
-371 -57 60 0
371 -366 57 60 -58 0
371 -366 -57 -60 -58 0
372 369 -55 0
372 -369 55 0
-372 369 55 0
-372 -369 -55 0
373 58 -56 0
373 -58 56 0
-373 58 56 0
-373 -58 -56 0
-374 369 0
-374 56 0
-374 55 -58 0
-374 -55 58 0
374 -369 55 58 -56 0
374 -369 -55 -58 -56 0
375 372 -53 0
375 -372 53 0
-375 372 53 0
-375 -372 -53 0
376 56 -54 0
376 -56 54 0
-376 56 54 0
-376 -56 -54 0
-377 372 0
-377 54 0
-377 53 -56 0
-377 -53 56 0
377 -372 53 56 -54 0
377 -372 -53 -56 -54 0
378 375 -51 0
378 -375 51 0
-378 375 51 0
-378 -375 -51 0
379 54 -52 0
379 -54 52 0
-379 54 52 0
-379 -54 -52 0
-380 375 0
-380 52 0
-380 51 -54 0
-380 -51 54 0
380 -375 51 54 -52 0
380 -375 -51 -54 -52 0
381 378 -49 0
381 -378 49 0
-381 378 49 0
-381 -378 -49 0
382 52 -50 0
382 -52 50 0
-382 52 50 0
-382 -52 -50 0
-383 378 0
-383 50 0
-383 49 -52 0
-383 -49 52 0
383 -378 49 52 -50 0
383 -378 -49 -52 -50 0
384 381 -47 0
384 -381 47 0
-384 381 47 0
-384 -381 -47 0
385 50 -48 0
385 -50 48 0
-385 50 48 0
-385 -50 -48 0
-386 381 0
-386 48 0
-386 47 -50 0
-386 -47 50 0
386 -381 47 50 -48 0
386 -381 -47 -50 -48 0
387 384 -45 0
387 -384 45 0
-387 384 45 0
-387 -384 -45 0
388 48 -46 0
388 -48 46 0
-388 48 46 0
-388 -48 -46 0
-389 384 0
-389 46 0
-389 45 -48 0
-389 -45 48 0
389 -384 45 48 -46 0
389 -384 -45 -48 -46 0
390 387 -43 0
390 -387 43 0
-390 387 43 0
-390 -387 -43 0
391 46 -44 0
391 -46 44 0
-391 46 44 0
-391 -46 -44 0
-392 387 0
-392 44 0
-392 43 -46 0
-392 -43 46 0
392 -387 43 46 -44 0
392 -387 -43 -46 -44 0
393 390 -41 0
393 -390 41 0
-393 390 41 0
-393 -390 -41 0
394 44 -42 0
394 -44 42 0
-394 44 42 0
-394 -44 -42 0
-395 390 0
-395 42 0
-395 41 -44 0
-395 -41 44 0
395 -390 41 44 -42 0
395 -390 -41 -44 -42 0
396 393 -39 0
396 -393 39 0
-396 393 39 0
-396 -393 -39 0
397 42 -40 0
397 -42 40 0
-397 42 40 0
-397 -42 -40 0
-398 393 0
-398 40 0
-398 39 -42 0
-398 -39 42 0
398 -393 39 42 -40 0
398 -393 -39 -42 -40 0
399 396 -37 0
399 -396 37 0
-399 396 37 0
-399 -396 -37 0
400 40 -38 0
400 -40 38 0
-400 40 38 0
-400 -40 -38 0
-401 396 0
-401 38 0
-401 37 -40 0
-401 -37 40 0
401 -396 37 40 -38 0
401 -396 -37 -40 -38 0
402 399 -35 0
402 -399 35 0
-402 399 35 0
-402 -399 -35 0
403 38 -36 0
403 -38 36 0
-403 38 36 0
-403 -38 -36 0
-404 399 0
-404 36 0
-404 35 -38 0
-404 -35 38 0
404 -399 35 38 -36 0
404 -399 -35 -38 -36 0
405 402 -33 0
405 -402 33 0
-405 402 33 0
-405 -402 -33 0
406 36 -34 0
406 -36 34 0
-406 36 34 0
-406 -36 -34 0
-407 402 0
-407 34 0
-407 33 -36 0
-407 -33 36 0
407 -402 33 36 -34 0
407 -402 -33 -36 -34 0
408 405 -31 0
408 -405 31 0
-408 405 31 0
-408 -405 -31 0
409 34 -32 0
409 -34 32 0
-409 34 32 0
-409 -34 -32 0
-410 405 0
-410 32 0
-410 31 -34 0
-410 -31 34 0
410 -405 31 34 -32 0
410 -405 -31 -34 -32 0
411 408 -29 0
411 -408 29 0
-411 408 29 0
-411 -408 -29 0
412 32 -30 0
412 -32 30 0
-412 32 30 0
-412 -32 -30 0
-413 408 0
-413 30 0
-413 29 -32 0
-413 -29 32 0
413 -408 29 32 -30 0
413 -408 -29 -32 -30 0
414 411 -27 0
414 -411 27 0
-414 411 27 0
-414 -411 -27 0
415 30 -28 0
415 -30 28 0
-415 30 28 0
-415 -30 -28 0
-416 411 0
-416 28 0
-416 27 -30 0
-416 -27 30 0
416 -411 27 30 -28 0
416 -411 -27 -30 -28 0
417 414 -25 0
417 -414 25 0
-417 414 25 0
-417 -414 -25 0
418 28 -26 0
418 -28 26 0
-418 28 26 0
-418 -28 -26 0
-419 414 0
-419 26 0
-419 25 -28 0
-419 -25 28 0
419 -414 25 28 -26 0
419 -414 -25 -28 -26 0
420 417 -23 0
420 -417 23 0
-420 417 23 0
-420 -417 -23 0
421 26 -24 0
421 -26 24 0
-421 26 24 0
-421 -26 -24 0
-422 417 0
-422 24 0
-422 23 -26 0
-422 -23 26 0
422 -417 23 26 -24 0
422 -417 -23 -26 -24 0
423 420 -21 0
423 -420 21 0
-423 420 21 0
-423 -420 -21 0
424 24 -22 0
424 -24 22 0
-424 24 22 0
-424 -24 -22 0
-425 420 0
-425 22 0
-425 21 -24 0
-425 -21 24 0
425 -420 21 24 -22 0
425 -420 -21 -24 -22 0
426 423 -19 0
426 -423 19 0
-426 423 19 0
-426 -423 -19 0
427 22 -20 0
427 -22 20 0
-427 22 20 0
-427 -22 -20 0
-428 423 0
-428 20 0
-428 19 -22 0
-428 -19 22 0
428 -423 19 22 -20 0
428 -423 -19 -22 -20 0
429 426 -17 0
429 -426 17 0
-429 426 17 0
-429 -426 -17 0
430 20 -18 0
430 -20 18 0
-430 20 18 0
-430 -20 -18 0
-431 426 0
-431 18 0
-431 17 -20 0
-431 -17 20 0
431 -426 17 20 -18 0
431 -426 -17 -20 -18 0
432 429 -15 0
432 -429 15 0
-432 429 15 0
-432 -429 -15 0
433 18 -16 0
433 -18 16 0
-433 18 16 0
-433 -18 -16 0
-434 429 0
-434 16 0
-434 15 -18 0
-434 -15 18 0
434 -429 15 18 -16 0
434 -429 -15 -18 -16 0
435 432 -13 0
435 -432 13 0
-435 432 13 0
-435 -432 -13 0
436 16 -14 0
436 -16 14 0
-436 16 14 0
-436 -16 -14 0
-437 432 0
-437 14 0
-437 13 -16 0
-437 -13 16 0
437 -432 13 16 -14 0
437 -432 -13 -16 -14 0
438 435 -11 0
438 -435 11 0
-438 435 11 0
-438 -435 -11 0
439 14 -12 0
439 -14 12 0
-439 14 12 0
-439 -14 -12 0
-440 435 0
-440 12 0
-440 11 -14 0
-440 -11 14 0
440 -435 11 14 -12 0
440 -435 -11 -14 -12 0
441 438 -9 0
441 -438 9 0
-441 438 9 0
-441 -438 -9 0
442 12 -10 0
442 -12 10 0
-442 12 10 0
-442 -12 -10 0
-443 438 0
-443 10 0
-443 9 -12 0
-443 -9 12 0
443 -438 9 12 -10 0
443 -438 -9 -12 -10 0
444 441 -7 0
444 -441 7 0
-444 441 7 0
-444 -441 -7 0
445 10 -8 0
445 -10 8 0
-445 10 8 0
-445 -10 -8 0
-446 441 0
-446 8 0
-446 7 -10 0
-446 -7 10 0
446 -441 7 10 -8 0
446 -441 -7 -10 -8 0
447 444 -5 0
447 -444 5 0
-447 444 5 0
-447 -444 -5 0
448 8 -6 0
448 -8 6 0
-448 8 6 0
-448 -8 -6 0
-449 444 0
-449 6 0
-449 5 -8 0
-449 -5 8 0
449 -444 5 8 -6 0
449 -444 -5 -8 -6 0
450 447 -3 0
450 -447 3 0
-450 447 3 0
-450 -447 -3 0
451 6 -4 0
451 -6 4 0
-451 6 4 0
-451 -6 -4 0
-452 447 0
-452 4 0
-452 3 -6 0
-452 -3 6 0
452 -447 3 6 -4 0
452 -447 -3 -6 -4 0
453 450 -1 0
453 -450 1 0
-453 450 1 0
-453 -450 -1 0
454 4 -2 0
454 -4 2 0
-454 4 2 0
-454 -4 -2 0
-455 450 0
-455 2 0
-455 1 -4 0
-455 -1 4 0
455 -450 1 4 -2 0
455 -450 -1 -4 -2 0
-453 0
-450 0
-454 0
-447 0
-451 0
-444 0
-448 0
-441 0
-445 0
-438 0
-442 0
-435 0
-439 0
-432 0
-436 0
-429 0
-433 0
-426 0
-430 0
-423 0
-427 0
-420 0
-424 0
-417 0
-421 0
-414 0
-418 0
-411 0
-415 0
-408 0
-412 0
-405 0
-409 0
-402 0
-406 0
-399 0
-403 0
-396 0
-400 0
-393 0
-397 0
-390 0
-394 0
-387 0
-391 0
-384 0
-388 0
-381 0
-385 0
-378 0
-382 0
-375 0
-379 0
-372 0
-376 0
-369 0
-373 0
-366 0
-370 0
-363 0
-367 0
-360 0
-364 0
-357 0
-361 0
-354 0
-358 0
-351 0
-355 0
-348 0
-352 0
-345 0
-349 0
-342 0
-346 0
-339 0
-343 0
-336 0
-340 0
-333 0
-337 0
-330 0
-334 0
-327 0
-331 0
-324 0
-328 0
-321 0
-325 0
-318 0
-322 0
-315 0
-319 0
-312 0
-316 0
-309 0
-313 0
-306 0
-310 0
-303 0
-307 0
-300 0
-304 0
-297 0
-301 0
-294 0
-298 0
-291 0
-295 0
-288 0
-292 0
-285 0
-289 0
-282 0
-286 0
-279 0
-283 0
-276 0
-280 0
-273 0
-277 0
-270 0
-274 0
-267 0
-271 0
-264 0
-268 0
-261 0
-265 0
-258 0
-262 0
-255 0
-259 0
-252 0
-256 0
-249 0
-253 0
-246 0
-250 0
-243 0
-247 0
-240 0
-244 0
-237 0
-241 0
-234 0
-238 0
-231 0
-235 0
-228 0
-232 0
-225 0
-229 0
-222 0
-226 0
-219 0
-223 0
-216 0
-220 0
-213 0
-217 0
-210 0
-214 0
-207 0
-211 0
-204 0
-208 0
-201 0
-205 0
-198 0
-202 0
-195 0
-199 0
-192 0
-196 0
-189 0
-193 0
-183 0
-190 0
